%%%mzn-stat: initTime=0.004635909
%%%mzn-stat: objective=368
%%%mzn-stat: nodes=477
%%%mzn-stat: restarts=0
%%%mzn-stat: peakDepth=110
%%%mzn-stat: solveTime=0.035909181
%%%mzn-stat: variables=508
%%%mzn-stat: propagators=359
%%%mzn-stat: failures=367
%%%mzn-stat: propagations=88250
%%%mzn-stat: nogoods=367
%%%mzn-stat: AverageConflictSize=2
%%%mzn-stat: NumUnitNogoodsLearned=367
%%%mzn-stat: AverageLearnedNogoodLength=1
%%%mzn-stat: AverageBacktrackAmount=0
%%%mzn-stat: AverageLbd=1
%%%mzn-stat-end
maxleg = 368;
succ = array1d(1..20,[17, 1, 20, 2, 8, 18, 5, 16, 12, 19, 15, 6, 7, 10, 4, 14, 3, 11, 9, 13]);
% time elapsed: 2.24 s
----------
==========
% time elapsed: 2.24 s
%%%mzn-stat: initTime=0.004635909
%%%mzn-stat: objective=368
%%%mzn-stat: nodes=477
%%%mzn-stat: restarts=0
%%%mzn-stat: peakDepth=110
%%%mzn-stat: solveTime=0.035916697
%%%mzn-stat: variables=508
%%%mzn-stat: propagators=359
%%%mzn-stat: failures=367
%%%mzn-stat: propagations=88250
%%%mzn-stat: nogoods=367
%%%mzn-stat: AverageConflictSize=2
%%%mzn-stat: NumUnitNogoodsLearned=367
%%%mzn-stat: AverageLearnedNogoodLength=1
%%%mzn-stat: AverageBacktrackAmount=0
%%%mzn-stat: AverageLbd=1
%%%mzn-stat-end
